NAME MasterProb
ROWS
 N  OBJ
 L  c0      
 L  c1      
 L  c2      
 L  c3      
 L  c4      
 L  c5      
 L  c6      
 L  c7      
 L  c8      
 L  c9      
 L  c10     
 L  c11     
 L  c12     
 L  c13     
 L  c14     
 L  c15     
 L  c16     
COLUMNS
    MARKER    'MARKER'                 'INTORG'
    X[0,0]    OBJ       2.6520000000000005e+02
    X[0,0]    c0        2.3520000000000002e+02
    X[0,0]    c1        1
    X[0,0]    c16       1.0080000000000001e+02
    X[0,1]    OBJ       1768
    X[0,1]    c0        1568
    X[0,1]    c2        1
    X[0,1]    c16       672
    X[0,2]    OBJ       353.6
    X[0,2]    c0        313.6
    X[0,2]    c3        1
    X[0,2]    c16       134.4
    X[1,0]    OBJ       2.6520000000000005e+02
    X[1,0]    c0        2.3520000000000002e+02
    X[1,0]    c4        1
    X[1,0]    c16       1.0080000000000001e+02
    X[1,1]    OBJ       1768
    X[1,1]    c0        1568
    X[1,1]    c5        1
    X[1,1]    c16       672
    X[1,2]    OBJ       353.6
    X[1,2]    c0        313.6
    X[1,2]    c6        1
    X[1,2]    c16       134.4
    X[2,0]    OBJ       2.6520000000000005e+02
    X[2,0]    c0        2.3520000000000002e+02
    X[2,0]    c7        1
    X[2,0]    c16       1.0080000000000001e+02
    X[2,1]    OBJ       1768
    X[2,1]    c0        1568
    X[2,1]    c8        1
    X[2,1]    c16       672
    X[2,2]    OBJ       353.6
    X[2,2]    c0        313.6
    X[2,2]    c9        1
    X[2,2]    c16       134.4
    X[3,0]    OBJ       2.6520000000000005e+02
    X[3,0]    c0        2.3520000000000002e+02
    X[3,0]    c10       1
    X[3,0]    c16       1.0080000000000001e+02
    X[3,1]    OBJ       1768
    X[3,1]    c0        1568
    X[3,1]    c11       1
    X[3,1]    c16       672
    X[3,2]    OBJ       353.6
    X[3,2]    c0        313.6
    X[3,2]    c12       1
    X[3,2]    c16       134.4
    X[4,0]    OBJ       2.6520000000000005e+02
    X[4,0]    c0        2.3520000000000002e+02
    X[4,0]    c13       1
    X[4,0]    c16       1.0080000000000001e+02
    X[4,1]    OBJ       1768
    X[4,1]    c0        1568
    X[4,1]    c14       1
    X[4,1]    c16       672
    X[4,2]    OBJ       353.6
    X[4,2]    c0        313.6
    X[4,2]    c15       1
    X[4,2]    c16       134.4
    U[0]      OBJ       12714.8
    U[0]      c0        12714.8
    U[0]      c1        -300
    U[0]      c2        -114
    U[0]      c3        -100
    U[0]      c16       5449.2
    U[1]      OBJ       44055.2
    U[1]      c0        44055.2
    U[1]      c4        -300
    U[1]      c5        -396
    U[1]      c6        -100
    U[1]      c16       18880.8
    U[2]      OBJ       15728.3
    U[2]      c0        15728.3
    U[2]      c7        -300
    U[2]      c8        -141
    U[2]      c9        -100
    U[2]      c16       6740.7
    U[3]      OBJ       15026.9
    U[3]      c0        15026.9
    U[3]      c10       -300
    U[3]      c11       -133
    U[3]      c12       -100
    U[3]      c16       6.4400999999999995e+03
    U[4]      OBJ       27412
    U[4]      c0        27412
    U[4]      c13       -300
    U[4]      c14       -246
    U[4]      c15       -100
    U[4]      c16       11748
    MARKER    'MARKER'                 'INTEND'
    eta       OBJ       1
RHS
    RHS1      c0        500000
    RHS1      c16       20000
BOUNDS
 LI BND1      X[0,0]    0
 LI BND1      X[0,1]    0
 LI BND1      X[0,2]    0
 LI BND1      X[1,0]    0
 LI BND1      X[1,1]    0
 LI BND1      X[1,2]    0
 LI BND1      X[2,0]    0
 LI BND1      X[2,1]    0
 LI BND1      X[2,2]    0
 LI BND1      X[3,0]    0
 LI BND1      X[3,1]    0
 LI BND1      X[3,2]    0
 LI BND1      X[4,0]    0
 LI BND1      X[4,1]    0
 LI BND1      X[4,2]    0
 BV BND1      U[0]    
 BV BND1      U[1]    
 BV BND1      U[2]    
 BV BND1      U[3]    
 BV BND1      U[4]    
 LO BND1      eta       -10000000000
ENDATA
